unsat
(error "line 617 column 17: model is not available")
(error "line 618 column 17: model is not available")
(error "line 619 column 18: model is not available")
(error "line 620 column 18: model is not available")
(error "line 621 column 18: model is not available")
(error "line 622 column 18: model is not available")
(error "line 623 column 18: model is not available")
(error "line 624 column 18: model is not available")
(error "line 625 column 18: model is not available")
(error "line 626 column 18: model is not available")
(error "line 627 column 18: model is not available")
(error "line 628 column 18: model is not available")
(error "line 629 column 17: model is not available")
(error "line 630 column 18: model is not available")
(error "line 631 column 18: model is not available")
(error "line 632 column 18: model is not available")
(error "line 633 column 18: model is not available")
(error "line 634 column 18: model is not available")
(error "line 635 column 18: model is not available")
(error "line 636 column 18: model is not available")
(error "line 637 column 18: model is not available")
(error "line 638 column 18: model is not available")
(error "line 639 column 18: model is not available")
(error "line 640 column 17: model is not available")
(error "line 641 column 18: model is not available")
(error "line 642 column 18: model is not available")
(error "line 643 column 18: model is not available")
(error "line 644 column 18: model is not available")
(error "line 645 column 18: model is not available")
(error "line 646 column 18: model is not available")
(error "line 647 column 18: model is not available")
(error "line 648 column 18: model is not available")
(error "line 649 column 18: model is not available")
(error "line 650 column 18: model is not available")
(error "line 651 column 17: model is not available")
(error "line 652 column 18: model is not available")
(error "line 653 column 18: model is not available")
(error "line 654 column 18: model is not available")
(error "line 655 column 18: model is not available")
(error "line 656 column 18: model is not available")
(error "line 657 column 18: model is not available")
(error "line 658 column 18: model is not available")
(error "line 659 column 18: model is not available")
(error "line 660 column 18: model is not available")
(error "line 661 column 17: model is not available")
(error "line 662 column 17: model is not available")
(error "line 663 column 17: model is not available")
(error "line 664 column 17: model is not available")
(error "line 665 column 17: model is not available")
(error "line 666 column 59: model is not available")
(error "line 667 column 59: model is not available")
(error "line 668 column 57: model is not available")
(error "line 669 column 59: model is not available")
(error "line 670 column 66: model is not available")
(error "line 671 column 59: model is not available")
(error "line 672 column 59: model is not available")
(error "line 673 column 59: model is not available")
(error "line 674 column 59: model is not available")
(error "line 675 column 66: model is not available")
(error "line 676 column 59: model is not available")
(error "line 677 column 66: model is not available")
(error "line 678 column 64: model is not available")
(error "line 679 column 56: model is not available")
(error "line 680 column 56: model is not available")
(error "line 681 column 63: model is not available")
(error "line 682 column 63: model is not available")
(error "line 683 column 63: model is not available")
(error "line 684 column 63: model is not available")
(error "line 685 column 58: model is not available")
(error "line 686 column 58: model is not available")
(error "line 687 column 38: model is not available")
(error "line 688 column 45: model is not available")
(error "line 689 column 38: model is not available")
(error "line 690 column 45: model is not available")
(error "line 691 column 46: model is not available")
(error "line 692 column 53: model is not available")
(error "line 693 column 40: model is not available")
(error "line 694 column 47: model is not available")
(error "line 695 column 38: model is not available")
(error "line 696 column 45: model is not available")
(error "line 697 column 38: model is not available")
(error "line 698 column 45: model is not available")
(error "line 699 column 41: model is not available")
(error "line 700 column 48: model is not available")
(error "line 701 column 41: model is not available")
(error "line 702 column 48: model is not available")
(error "line 703 column 37: model is not available")
(error "line 704 column 44: model is not available")
(error "line 705 column 42: model is not available")
(error "line 706 column 42: model is not available")
(error "line 707 column 38: model is not available")
(error "line 708 column 38: model is not available")
(error "line 709 column 38: model is not available")
(error "line 710 column 41: model is not available")
(error "line 711 column 48: model is not available")
(error "line 712 column 41: model is not available")
(error "line 713 column 48: model is not available")
(error "line 714 column 41: model is not available")
(error "line 715 column 48: model is not available")
(error "line 716 column 45: model is not available")
(error "line 717 column 45: model is not available")
(error "line 718 column 45: model is not available")
(error "line 719 column 45: model is not available")
(error "line 720 column 53: model is not available")
(error "line 721 column 38: model is not available")
(error "line 722 column 38: model is not available")
(error "line 723 column 38: model is not available")
(error "line 724 column 36: model is not available")
(error "line 725 column 29: model is not available")
(error "line 726 column 31: model is not available")
(error "line 727 column 38: model is not available")
(error "line 728 column 31: model is not available")
(error "line 729 column 38: model is not available")
(error "line 730 column 50: model is not available")
(error "line 731 column 50: model is not available")
(error "line 732 column 50: model is not available")
(error "line 733 column 50: model is not available")
(error "line 734 column 50: model is not available")
(error "line 735 column 50: model is not available")
(error "line 736 column 54: model is not available")
(error "line 737 column 54: model is not available")
(error "line 738 column 34: model is not available")
(error "line 739 column 34: model is not available")
(error "line 740 column 37: model is not available")
(error "line 741 column 37: model is not available")
(error "line 742 column 27: model is not available")
(error "line 743 column 36: model is not available")
(error "line 744 column 46: model is not available")
(error "line 745 column 46: model is not available")
(error "line 746 column 54: model is not available")
(error "line 747 column 54: model is not available")
(error "line 748 column 54: model is not available")
(error "line 749 column 40: model is not available")
(error "line 750 column 40: model is not available")
(error "line 751 column 41: model is not available")
(error "line 752 column 41: model is not available")
(error "line 753 column 50: model is not available")
(error "line 754 column 50: model is not available")
(error "line 755 column 43: model is not available")
(error "line 756 column 43: model is not available")
(error "line 757 column 19: model is not available")
(error "line 758 column 21: model is not available")
(error "line 759 column 28: model is not available")
(error "line 760 column 21: model is not available")
(error "line 761 column 28: model is not available")
(error "line 762 column 21: model is not available")
(error "line 763 column 28: model is not available")
(error "line 764 column 21: model is not available")
(error "line 765 column 21: model is not available")
(error "line 766 column 21: model is not available")
(error "line 767 column 21: model is not available")
(error "line 768 column 28: model is not available")
(error "line 769 column 30: model is not available")
(error "line 770 column 36: model is not available")
(error "line 771 column 36: model is not available")
(error "line 772 column 75: model is not available")
(error "line 773 column 75: model is not available")
(error "line 774 column 30: model is not available")
(error "line 776 column 10: model is not available")
(:max-memory   3.42
 :memory       3.11
 :mk-bool-var  5
 :num-allocs   1125545
 :rlimit-count 2528
 :time         0.00
 :total-time   0.01)

real	0m0.013s
user	0m0.013s
sys	0m0.000s
State: RE Run_time: 0.015552759170532227